FILENAME:   /home/mcs001/s132664/testsets/IP/miplib2017/8div-n59k10.mps.gz
SETTINGS:   settings_final_nosym_norestarts
TIMELIMIT:  7200
OUTPUTNAME: final_miplib_symretope_if_extended_generating_set_cpx_v802__settings_final_nosym_norestarts__3__
BINNAME:    bin/sbcs.linux.x86_64.gnu.opt.cpx
BASENAME:   8div-n59k10.mps.gz
SEED:       3
@01 /home/mcs001/s132664/testsets/IP/miplib2017/8div-n59k10.mps.gz ===========
@02 8div-n59k10.mps.gz
@03 1686658992
SCIP version 8.0.2 [precision: 8 byte] [memory: block] [mode: optimized] [LP solver: CPLEX 20.1.0.0] [GitHash: 5f0473c]
Copyright (C) 2002-2022 Konrad-Zuse-Zentrum fuer Informationstechnik Berlin (ZIB)

Symretope propagation methods - (c) Jasper van Doornmalen, Christopher Hojny.
[GitHash: 2fd0484]

reading parameter file <../settings/settings_final_nosym_norestarts.set> ...

Changed settings:
limits/time = 7200
limits/restarts = 0
misc/usesymmetry = 0
randomization/randomseedshift = 3
constraints/orbisack/sepafreq = -1
constraints/symresack/sepafreq = -1
propagating/symmetry/detectsubgroups = FALSE
propagating/symmetry/usesymretopes = FALSE
propagating/symmetry/relabelsymretopes = 0
propagating/symmetry/ofsymcomptiming = 0
constraints/symretope/sepafreq = -1
constraints/symretope/peek = FALSE


solving problem ...

original problem has 6143 variables (6138 bin, 5 int, 0 impl, 0 cont) and 2065 constraints
presolving:
(round 1, fast)       10 del vars, 10 del conss, 2 add conss, 21 chg bounds, 0 chg sides, 0 chg coeffs, 0 upgd conss, 0 impls, 1023 clqs
(round 2, fast)       10 del vars, 10 del conss, 2 add conss, 21 chg bounds, 4 chg sides, 6 chg coeffs, 0 upgd conss, 0 impls, 1023 clqs
(round 3, exhaustive) 10 del vars, 11 del conss, 2 add conss, 21 chg bounds, 6 chg sides, 6 chg coeffs, 0 upgd conss, 0 impls, 1023 clqs
(round 4, exhaustive) 10 del vars, 11 del conss, 2 add conss, 21 chg bounds, 6 chg sides, 6 chg coeffs, 1023 upgd conss, 0 impls, 1023 clqs
   (1.2s) probing: 1000/6128 (16.3%) - 0 fixings, 0 aggregations, 999 implications, 0 bound changes
   (1.2s) probing: 1001/6128 (16.3%) - 0 fixings, 0 aggregations, 1000 implications, 0 bound changes
   (1.2s) probing aborted: 1000/1000 successive useless probings
presolving (5 rounds: 5 fast, 3 medium, 3 exhaustive):
 10 deleted vars, 11 deleted constraints, 2 added constraints, 21 tightened bounds, 0 added holes, 6 changed sides, 6 changed coefficients
 1000 implications, 1023 cliques
presolved problem has 6133 variables (6128 bin, 5 int, 0 impl, 0 cont) and 2056 constraints
   1023 constraints of type <setppc>
   1033 constraints of type <linear>
transformed objective value is always integral (scale: 1)
Presolving Time: 1.43

 time | node  | left  |LP iter|LP it/n|mem/heur|mdpt |vars |cons |rows |cuts |sepa|confs|strbr|  dualbound   | primalbound  |  gap   | compl. 
 36.9s|     1 |     0 |   144 |     - |   425M |   0 |6133 |2056 |2056 |   0 |  0 |   0 |   0 |-7.090000e+02 |      --      |    Inf | unknown
 60.8s|     1 |     0 |  5256 |     - |   426M |   0 |6133 |2061 |2056 |   0 |  0 |   5 |   0 |-7.090000e+02 |      --      |    Inf | unknown
 61.2s|     1 |     0 |  5256 |     - |   426M |   0 |6133 |2067 |2056 |   0 |  0 |  11 |   0 |-7.090000e+02 |      --      |    Inf | unknown
 62.1s|     1 |     0 |  5256 |     - |   427M |   0 |6133 |2069 |2058 |   0 |  2 |  11 |   0 |-7.090000e+02 |      --      |    Inf | unknown
 86.6s|     1 |     2 |  9132 |     - |   427M |   0 |6133 |2084 |2058 |   0 |  4 |  32 |  12 |-7.090000e+02 |      --      |    Inf | unknown
 1822s|   100 |    97 |194076 |1908.4 |   432M |  97 |6133 |2090 |2055 |   0 |  1 |  38 | 289 |-7.090000e+02 |      --      |    Inf | unknown
 2393s|   200 |   189 |408328 |2026.0 |   434M | 106 |6133 |2128 |2055 |   0 |  1 |  77 | 404 |-7.090000e+02 |      --      |    Inf | unknown
 3062s|   300 |   267 |650128 |2157.1 |   436M | 106 |6133 |2215 |2055 |   0 |  1 | 168 | 567 |-7.090000e+02 |      --      |    Inf | unknown
 3797s|   400 |   355 |933721 |2327.3 |   436M | 106 |6133 |2285 |2055 |   0 |  1 | 239 | 667 |-7.090000e+02 |      --      |    Inf | unknown
 4529s|   500 |   441 |  1168k|2330.5 |   438M | 106 |6133 |2370 |2055 |   0 |  1 | 326 | 856 |-7.090000e+02 |      --      |    Inf | unknown
 5131s|   600 |   535 |  1369k|2277.5 |   441M | 106 |6133 |2469 |2055 |   0 |  1 | 425 |1001 |-7.090000e+02 |      --      |    Inf | unknown
 5909s|   700 |   623 |  1615k|2303.7 |   442M | 106 |6133 |2521 |2055 |   0 |  1 | 478 |1229 |-7.090000e+02 |      --      |    Inf | unknown
 6393s|   800 |   715 |  1807k|2256.3 |   442M | 106 |6133 |2616 |2055 |   0 |  1 | 573 |1333 |-7.090000e+02 |      --      |    Inf | unknown
 7199s|   900 |   787 |  2018k|2239.1 |   444M | 109 |6133 |2702 |2055 |   0 |  0 | 660 |1606 |-7.090000e+02 |      --      |    Inf | unknown

SCIP Status        : solving was interrupted [time limit reached]
Solving Time (sec) : 7200.01
Solving Nodes      : 901
Primal Bound       : +1.00000000000000e+20 (0 solutions)
Dual Bound         : -7.09000000000000e+02
Gap                : infinite
SCIP Status        : solving was interrupted [time limit reached]
Total Time         :    7200.34
  solving          :    7200.01
  presolving       :       1.43 (included in solving)
  reading          :       0.33
  copying          :       2.81 (26 #copies) (minimal 0.10, maximal 0.11, average 0.11)
Original Problem   :
  Problem name     : 8div-n59k10
  Variables        : 6143 (6138 binary, 5 integer, 0 implicit integer, 0 continuous)
  Constraints      : 2065 initial, 2065 maximal
  Objective        : minimize, 1 non-zeros (abs.min = 1, abs.max = 1)
Presolved Problem  :
  Problem name     : t_8div-n59k10
  Variables        : 6133 (6128 binary, 5 integer, 0 implicit integer, 0 continuous)
  Constraints      : 2056 initial, 2702 maximal
  Objective        : minimize, 1 non-zeros (abs.min = 1, abs.max = 1)
  Nonzeros         : 534024 constraint, 5115 clique table
Presolvers         :   ExecTime  SetupTime  Calls  FixedVars   AggrVars   ChgTypes  ChgBounds   AddHoles    DelCons    AddCons   ChgSides   ChgCoefs
  boundshift       :       0.00       0.00      0          0          0          0          0          0          0          0          0          0
  convertinttobin  :       0.00       0.00      0          0          0          0          0          0          0          0          0          0
  domcol           :       0.08       0.00      1          0          0          0          0          0          0          0          0          0
  dualagg          :       0.00       0.00      0          0          0          0          0          0          0          0          0          0
  dualcomp         :       0.00       0.00      0          0          0          0          0          0          0          0          0          0
  dualinfer        :       0.00       0.00      0          0          0          0          0          0          0          0          0          0
  dualsparsify     :       0.31       0.00      1          0          0          0          0          0          0          0          0          0
  gateextraction   :       0.00       0.00      0          0          0          0          0          0          0          0          0          0
  implics          :       0.00       0.00      3          0          0          0          0          0          0          0          0          0
  inttobinary      :       0.00       0.00      5          0          0          0          0          0          0          0          0          0
  qpkktref         :       0.00       0.00      0          0          0          0          0          0          0          0          0          0
  redvub           :       0.00       0.00      0          0          0          0          0          0          0          0          0          0
  sparsify         :       0.34       0.00      1          0          0          0          0          0          0          0          0          0
  stuffing         :       0.00       0.00      0          0          0          0          0          0          0          0          0          0
  trivial          :       0.00       0.00      5          0          0          0          0          0          0          0          0          0
  tworowbnd        :       0.00       0.00      0          0          0          0          0          0          0          0          0          0
  dualfix          :       0.00       0.00      5          0          0          0          0          0          0          0          0          0
  genvbounds       :       0.00       0.00      0          0          0          0          0          0          0          0          0          0
  probing          :       0.36       0.00      1          0          0          0          0          0          0          0          0          0
  pseudoobj        :       0.00       0.00      0          0          0          0          0          0          0          0          0          0
  symmetry         :       0.00       0.00      0          0          0          0          0          0          0          0          0          0
  vbounds          :       0.00       0.00      1          0          0          0          0          0          0          0          0          0
  knapsack         :       0.00       0.00      0          0          0          0          0          0          0          0          0          0
  setppc           :       0.00       0.00      3          0          0          0          0          0          0          0          0          0
  linear           :       0.28       0.10      8         10          0          0         21          0         11          2          6          6
  logicor          :       0.00       0.00      0          0          0          0          0          0          0          0          0          0
  bounddisjunction :       0.00       0.00      0          0          0          0          0          0          0          0          0          0
  benders          :       0.00       0.00      0          0          0          0          0          0          0          0          0          0
  components       :       0.05       0.00      1          0          0          0          0          0          0          0          0          0
  root node        :          -          -      -          0          -          -         17          -          -          -          -          -
Constraints        :     Number  MaxNumber  #Separate #Propagate    #EnfoLP    #EnfoRelax  #EnfoPS    #Check   #ResProp    Cutoffs    DomReds       Cuts    Applied      Conss   Children
  benderslp        :          0          0          0          0        871          0          0         52          0          0          0          0          0          0          0
  integral         :          0          0          0          0        871          0          0         52          0          0      15165          0          0        257       1686
  knapsack         :          0+         7          0       4679          0          0          0          0        127          1        392          0          0          0          0
  setppc           :       1023       1023          2      26975          0          0          0         47       4308          0       1701          0          0          0          0
  linear           :       1033+      1054          2      26975          0          0          0          0      10119       1016      27970          0          0          0          0
  logicor          :          0+       218          2        422          0          0          0          0         38         47         20          0          0          0          0
  bounddisjunction :          0+       420          0        465          0          0          0          0        240          6        138          0          0          0          0
  benders          :          0          0          0          0          0          0          0          0          0          0          0          0          0          0          0
  countsols        :          0          0          0          0          0          0          0          0          0          0          0          0          0          0          0
  components       :          0          0          0          0          0          0          0          0          0          0          0          0          0          0          0
Constraint Timings :  TotalTime  SetupTime   Separate  Propagate     EnfoLP     EnfoPS     EnfoRelax   Check    ResProp    SB-Prop
  benderslp        :       0.00       0.00       0.00       0.00       0.00       0.00       0.00       0.00       0.00       0.00
  integral         :    2020.69       0.00       0.00       0.00    2020.68       0.00       0.00       0.00       0.00       0.00
  knapsack         :       0.19       0.00       0.00       0.02       0.00       0.00       0.00       0.00       0.00       0.16
  setppc           :       0.06       0.00       0.00       0.05       0.00       0.00       0.00       0.00       0.00       0.01
  linear           :      21.21       0.10       0.03      20.52       0.00       0.00       0.00       0.00       0.17       0.38
  logicor          :       0.01       0.00       0.00       0.00       0.00       0.00       0.00       0.00       0.00       0.01
  bounddisjunction :       0.01       0.00       0.00       0.00       0.00       0.00       0.00       0.00       0.00       0.00
  benders          :       0.00       0.00       0.00       0.00       0.00       0.00       0.00       0.00       0.00       0.00
  countsols        :       0.00       0.00       0.00       0.00       0.00       0.00       0.00       0.00       0.00       0.00
  components       :       0.00       0.00       0.00       0.00       0.00       0.00       0.00       0.00       0.00       0.00
Propagators        : #Propagate   #ResProp    Cutoffs    DomReds
  dualfix          :          2          0          0          0
  genvbounds       :          0          0          0          0
  nlobbt           :          0          0          0          0
  obbt             :          0          0          0          0
  probing          :          0          0          0          0
  pseudoobj        :       2603          0          0          1
  redcost          :       1753          0          0          1
  rootredcost      :          1          0          0          0
  symmetry         :          0          0          0          0
  vbounds          :       7643          0          0          0
Propagator Timings :  TotalTime  SetupTime   Presolve  Propagate    ResProp    SB-Prop
  dualfix          :       0.00       0.00       0.00       0.00       0.00       0.00
  genvbounds       :       0.00       0.00       0.00       0.00       0.00       0.00
  nlobbt           :       0.00       0.00       0.00       0.00       0.00       0.00
  obbt             :       0.00       0.00       0.00       0.00       0.00       0.00
  probing          :       0.36       0.00       0.36       0.00       0.00       0.00
  pseudoobj        :       0.01       0.00       0.00       0.01       0.00       0.00
  redcost          :       0.17       0.00       0.00       0.17       0.00       0.00
  rootredcost      :       0.00       0.00       0.00       0.00       0.00       0.00
  symmetry         :       0.00       0.00       0.00       0.00       0.00       0.00
  vbounds          :       0.03       0.00       0.00       0.02       0.00       0.00
Conflict Analysis  :       Time      Calls    Success    DomReds  Conflicts   Literals    Reconvs ReconvLits   Dualrays   Nonzeros   LP Iters   (pool size: [10000,10000])
  propagation      :       0.02         56         55          -        259       26.8          0        0.0          -          -          -
  infeasible LP    :       0.53         75         84          -       1511      164.6          2        6.0         20      224.3          0
  bound exceed. LP :       0.22          4          3          -        140      279.5          0        0.0          0        0.0         37
  strong branching :       0.00          0          0          -          0        0.0          0        0.0          -          -          0
  pseudo solution  :       0.00          0          0          -          0        0.0          0        0.0          -          -          -
  applied globally :       0.00          -          -          9        638       82.9          -          -         20          -          -
  applied locally  :          -          -          -          0          2     1049.0          -          -          0          -          -
Separators         :   ExecTime  SetupTime      Calls  RootCalls    Cutoffs    DomReds  FoundCuts ViaPoolAdd  DirectAdd    Applied ViaPoolApp  DirectApp      Conss
  cut pool         :       0.00          -          0          0          -          -          0          0          -          -          -          -          -    (maximal pool size:          0)
  aggregation      :       0.24       0.00         12          2          0          0          0          0          0          0          0          0          0
  > cmir           :          -          -          -          -          -          -          -          0          0          0          0          0          -
  > flowcover      :          -          -          -          -          -          -          -          0          0          0          0          0          -
  > knapsackcover  :          -          -          -          -          -          -          -          0          0          0          0          0          -
  cgmip            :       0.00       0.00          0          0          0          0          0          0          0          0          0          0          0
  clique           :       0.04       0.00          2          2          0          0          0          0          0          0          0          0          0
  closecuts        :       0.00       0.00          0          0          0          0          0          0          0          0          0          0          0
  convexproj       :       0.00       0.00          0          0          0          0          0          0          0          0          0          0          0
  disjunctive      :       0.00       0.00          0          0          0          0          0          0          0          0          0          0          0
  eccuts           :       0.00       0.00          0          0          0          0          0          0          0          0          0          0          0
  gauge            :       0.00       0.00          0          0          0          0          0          0          0          0          0          0          0
  gomory           :       2.80       0.00         12          2          0          0          0          0          0          0          0          0          0
  > gomorymi       :          -          -          -          -          -          -          -          0          0          0          0          0          -
  > strongcg       :          -          -          -          -          -          -          -          0          0          0          0          0          -
  impliedbounds    :       0.00       0.00         12          2          0          0          0          0          0          0          0          0          0
  interminor       :       0.00       0.00          0          0          0          0          0          0          0          0          0          0          0
  intobj           :       0.00       0.00          0          0          0          0          0          0          0          0          0          0          0
  mcf              :       0.00       0.00          1          1          0          0          0          0          0          0          0          0          0
  minor            :       0.00       0.00          0          0          0          0          0          0          0          0          0          0          0
  mixing           :       0.00       0.00         12          2          0          0          0          0          0          0          0          0          0
  oddcycle         :       0.00       0.00          0          0          0          0          0          0          0          0          0          0          0
  rapidlearning    :      62.08       0.00         22          1          0       1007          0          0          0          0          0          0         50
  rlt              :       0.00       0.00          2          2          0          0          0          0          0          0          0          0          0
  zerohalf         :       0.02       0.00         12          2          0          0          0          0          0          0          0          0          0
Cutselectors       :   ExecTime  SetupTime      Calls  RootCalls   Selected     Forced   Filtered  RootSelec   RootForc   RootFilt 
  hybrid           :       0.00       0.00          0          0          0          0          0          0          0          0
Pricers            :   ExecTime  SetupTime      Calls       Vars
  problem variables:       0.00          -          0          0
Branching Rules    :   ExecTime  SetupTime   BranchLP  BranchExt   BranchPS    Cutoffs    DomReds       Cuts      Conss   Children
  allfullstrong    :       0.00       0.00          0          0          0          0          0          0          0          0
  cloud            :       0.00       0.00          0          0          0          0          0          0          0          0
  distribution     :       0.00       0.00          0          0          0          0          0          0          0          0
  fullstrong       :       0.00       0.00          0          0          0          0          0          0          0          0
  inference        :       0.00       0.00          0          0          0          0          0          0          0          0
  leastinf         :       0.00       0.00          0          0          0          0          0          0          0          0
  lookahead        :       0.00       0.00          0          0          0          0          0          0          0          0
  mostinf          :       0.00       0.00          0          0          0          0          0          0          0          0
  multaggr         :       0.00       0.00          0          0          0          0          0          0          0          0
  nodereopt        :       0.00       0.00          0          0          0          0          0          0          0          0
  pscost           :       0.00       0.00          0          0          0          0          0          0          0          0
  random           :       0.00       0.00          0          0          0          0          0          0          0          0
  relpscost        :    2020.68       0.00        871          0          0          0      15165          0        258       1686
  vanillafullstrong:       0.00       0.00          0          0          0          0          0          0          0          0
Primal Heuristics  :   ExecTime  SetupTime      Calls      Found       Best
  LP solutions     :       0.00          -          -          0          0
  relax solutions  :       0.00          -          -          0          0
  pseudo solutions :       0.00          -          -          0          0
  strong branching :       0.00          -          -          0          0
  actconsdiving    :       0.00       0.00          0          0          0
  adaptivediving   :       2.93       0.00          1          0          0
  alns             :     124.97       0.00          3          0          0
  bound            :       0.00       0.00          0          0          0
  clique           :       0.24       0.00          1          0          0
  coefdiving       :       0.00       0.00          0          0          0
  completesol      :       0.00       0.00          0          0          0
  conflictdiving   :       4.42       0.00          1          0          0
  crossover        :       0.00       0.00          0          0          0
  dins             :       0.00       0.00          0          0          0
  distributiondivin:      14.33       0.00          1          0          0
  dps              :       0.00       0.00          0          0          0
  dualval          :       0.00       0.00          0          0          0
  farkasdiving     :       0.00       0.00          0          0          0
  feaspump         :      23.66       0.00          1          0          0
  fixandinfer      :       0.00       0.00          0          0          0
  fracdiving       :       8.33       0.00          1          0          0
  gins             :       0.00       0.00          0          0          0
  guideddiving     :       0.00       0.00          0          0          0
  indicator        :       0.00       0.00          0          0          0
  intdiving        :       0.00       0.00          0          0          0
  intshifting      :       0.00       0.00          0          0          0
  linesearchdiving :       0.00       0.00          0          0          0
  localbranching   :       0.00       0.00          0          0          0
  locks            :      33.83       0.00          1          0          0
  lpface           :     816.47       0.00          1          0          0
  mpec             :       0.00       0.00          0          0          0
  multistart       :       0.00       0.00          0          0          0
  mutation         :       0.00       0.00          0          0          0
  nlpdiving        :       0.00       0.00          0          0          0
  objpscostdiving  :       0.00       0.00          0          0          0
  octane           :       0.00       0.00          0          0          0
  ofins            :       0.00       0.00          0          0          0
  oneopt           :       0.00       0.00          0          0          0
  padm             :       0.00       0.00          0          0          0
  proximity        :       0.00       0.00          0          0          0
  pscostdiving     :      20.60       0.00          1          0          0
  randrounding     :       0.30       0.00         45          0          0
  rens             :       2.00       0.00          1          0          0
  reoptsols        :       0.00       0.00          0          0          0
  repair           :       0.00       0.00          0          0          0
  rins             :       0.00       0.00          0          0          0
  rootsoldiving    :       0.00       0.00          0          0          0
  rounding         :       2.95       0.00        366          0          0
  shiftandpropagate:       0.19       0.00          1          0          0
  shifting         :       2.40       0.00         87          0          0
  simplerounding   :       0.00       0.00          0          0          0
  subnlp           :       0.00       0.00          0          0          0
  trivial          :       0.01       0.00          2          0          0
  trivialnegation  :       0.00       0.00          0          0          0
  trustregion      :       0.00       0.00          0          0          0
  trysol           :       0.00       0.00          0          0          0
  twoopt           :       0.00       0.00          0          0          0
  undercover       :       0.00       0.00          0          0          0
  vbounds          :       0.20       0.00          1          0          0
  veclendiving     :       0.00       0.00          0          0          0
  zeroobj          :       0.00       0.00          0          0          0
  zirounding       :       0.63       0.00        843          0          0
  other solutions  :          -          -          -          0          -
LP                 :       Time      Calls Iterations  Iter/call   Iter/sec  Time-0-It Calls-0-It    ItLimit
  primal LP        :       2.07          1          0       0.00       0.00       2.07          1
  dual LP          :    4046.33        939    1983555    2137.45     490.21       0.32         11
  lex dual LP      :       0.00          0          0       0.00          -
  barrier LP       :       0.00          0          0       0.00          -       0.00          0
  resolve instable :       0.00          0          0       0.00          -
  diving/probing LP:      77.60         20      34861    1743.05     449.24
  strong branching :    2011.18       1606    1101464     685.84     547.67          -          -       1866
    (at root node) :          -         12       8111     675.92          -
  conflict analysis:       0.16          4         37       9.25     230.38
B&B Tree           :
  number of runs   :          1
  nodes            :        901 (843 internal, 58 leaves)
  feasible leaves  :          0
  infeas. leaves   :         51
  objective leaves :          6
  nodes (total)    :        901 (843 internal, 58 leaves)
  nodes left       :        787
  max depth        :        109
  max depth (total):        109
  backtracks       :         17 (1.9%)
  early backtracks :          0 (0.0%)
  nodes exc. ref.  :          0 (0.0%)
  delayed cutoffs  :          0
  repropagations   :        191 (1144 domain reductions, 0 cutoffs)
  avg switch length:       3.08
  switching time   :       2.32
Root Node          :
  First LP value   : -7.09000000000000e+02
  First LP Iters   :         34 (38.32 Iter/sec)
  First LP Time    :       0.89
  Final Dual Bound : -7.09000000000000e+02
  Final Root Iters :       5146
  Root LP Estimate : -7.08898420081338e+02
Solution           :
  Solutions found  :          0 (0 improvements)
  Primal Bound     :          -
  Dual Bound       : -7.09000000000000e+02
  Gap              :   infinite
Integrals          :      Total       Avg%
  primal-dual      :  720001.10     100.00
  primal-ref       :          -          - (not evaluated)
  dual-ref         :          -          - (not evaluated)
written solution information to file <results/final_miplib_symretope_if_extended_generating_set_cpx_v802__settings_final_nosym_norestarts__3__8div-n59k10.mps.gz.sol>
@04 1686666193
